10	6	4.15
2 5 1 4 2 6 3 5 5 3 6 9 6 1 7 2 1 3 2 4 7 5 4 6 2
2 1 6 8 4 1 5 4 1 5 6 6 6
2 6 1 6 2 4 3 9 4 3 5 5 6 9 4 2 6 3 3 4 1 6 3
2 4 3 1 4 8 5 7 6 6 5 1 7 2 1 3 1 5 9 6 3
2 6 1 4 2 7 3 3 4 5 5 1 6 1 2 3 6 5 2
2 4 1 5 2 4 4 8 6 3 6 1 6 2 5 3 8 4 4 5 7 6 1
2 2 1 7 5 9 6 1 2 2 1 3 4 4 6 5 6 6 5
2 5 2 6 3 8 4 7 5 1 6 3 3 1 1 2 8 4 3
2 5 1 4 2 6 3 1 5 5 6 1 1 5 1
2 4 1 2 2 1 4 2 6 8 4 1 3 2 2 3 8 6 1
